p cnf 8 16
c weights 1.0 1.0 1.5845213906131477 0.6311053961935088 0.9128065455858699 1.095522380767073 1.0 1.0 0.38042963418427206 2.6286070015135077 1.0 1.0 2.228246644640756 0.4487833527788046 1.0 1.0
2 1 4 0
2 -1 -4 0
-2 1 -4 0
-2 -1 4 0
3 1 6 0
3 -1 -6 0
-3 1 -6 0
-3 -1 6 0
5 4 8 0
5 -4 -8 0
-5 4 -8 0
-5 -4 8 0
7 6 8 0
7 -6 -8 0
-7 6 -8 0
-7 -6 8 0
